\Problem name: compact

Minimize
OBJROW: C
Subject To
ord(0,1):  - x(0,1) + x(0,2) >= 7
ord(0,2):  x(0,0) - x(0,2) >= 7
ord(1,1):  x(1,0) - x(1,1) >= 4
ord(1,2):  - x(1,0) + x(1,2) >= 3
ord(2,1):  - x(2,1) + x(2,2) >= 7
ord(2,2):  x(2,0) - x(2,2) >= 6
triangle2(0,1,0):  y(0,1,0) + y(1,0,0) = 1
triangle2(0,1,1):  y(0,1,1) + y(1,0,1) = 1
triangle2(0,1,2):  y(0,1,2) + y(1,0,2) = 1
triangle2(0,2,0):  y(0,2,0) + y(2,0,0) = 1
triangle2(0,2,1):  y(0,2,1) + y(2,0,1) = 1
triangle2(0,2,2):  y(0,2,2) + y(2,0,2) = 1
triangle2(1,2,0):  y(1,2,0) + y(2,1,0) = 1
triangle2(1,2,1):  y(1,2,1) + y(2,1,1) = 1
triangle2(1,2,2):  y(1,2,2) + y(2,1,2) = 1
MCLinV(0,1,0):  - x(0,0) + v(0,1,0)p - v(0,1,0)n + x(1,0) = -3
MCLinV(1,0,0):  x(0,0) + v(1,0,0)p - v(1,0,0)n - x(1,0) = -1
MCLin1(0,1,0):  u(0,1,0)p - u(0,1,0)n >= 0
MCLin2(0,1,0):  23 y(1,0,0) + u(0,1,0)p - u(0,1,0)n >= 0
MCLin3(0,1,0):  -36 y(1,0,0) - v(0,1,0)p + v(0,1,0)n + u(0,1,0)p - u(0,1,0)n >= -36
MCLin4(0,1,0):  -36 y(1,0,0) + u(0,1,0)p - u(0,1,0)n <= 0
MCLin5(0,1,0):  23 y(1,0,0) - v(0,1,0)p + v(0,1,0)n + u(0,1,0)p - u(0,1,0)n <= 23
MCLin6(1,0,0):  u(1,0,0)p - u(1,0,0)n >= 0
MCLin7(1,0,0):  40 y(0,1,0) + u(1,0,0)p - u(1,0,0)n >= 0
MCLin8(1,0,0):  -19 y(0,1,0) - v(1,0,0)p + v(1,0,0)n + u(1,0,0)p - u(1,0,0)n >= -19
MCLin9(1,0,0):  -19 y(0,1,0) + u(1,0,0)p - u(1,0,0)n <= 0
MCLin10(1,0,0):  40 y(0,1,0) - v(1,0,0)p + v(1,0,0)n + u(1,0,0)p - u(1,0,0)n <= 40
MCLinV(0,1,1):  - x(0,1) + v(0,1,1)p - v(0,1,1)n + x(1,1) = -4
MCLinV(1,0,1):  x(0,1) + v(1,0,1)p - v(1,0,1)n - x(1,1) = -7
MCLin1(0,1,1):  u(0,1,1)p - u(0,1,1)n >= 0
MCLin2(0,1,1):  34 y(1,0,1) + u(0,1,1)p - u(0,1,1)n >= 0
MCLin3(0,1,1):  -25 y(1,0,1) - v(0,1,1)p + v(0,1,1)n + u(0,1,1)p - u(0,1,1)n >= -25
MCLin4(0,1,1):  -25 y(1,0,1) + u(0,1,1)p - u(0,1,1)n <= 0
MCLin5(0,1,1):  34 y(1,0,1) - v(0,1,1)p + v(0,1,1)n + u(0,1,1)p - u(0,1,1)n <= 34
MCLin6(1,0,1):  u(1,0,1)p - u(1,0,1)n >= 0
MCLin7(1,0,1):  36 y(0,1,1) + u(1,0,1)p - u(1,0,1)n >= 0
MCLin8(1,0,1):  -23 y(0,1,1) - v(1,0,1)p + v(1,0,1)n + u(1,0,1)p - u(1,0,1)n >= -23
MCLin9(1,0,1):  -23 y(0,1,1) + u(1,0,1)p - u(1,0,1)n <= 0
MCLin10(1,0,1):  36 y(0,1,1) - v(1,0,1)p + v(1,0,1)n + u(1,0,1)p - u(1,0,1)n <= 36
MCLinV(0,1,2):  - x(0,2) + v(0,1,2)p - v(0,1,2)n + x(1,2) = -7
MCLinV(1,0,2):  x(0,2) + v(1,0,2)p - v(1,0,2)n - x(1,2) = -7
MCLin1(0,1,2):  u(0,1,2)p - u(0,1,2)n >= 0
MCLin2(0,1,2):  37 y(1,0,2) + u(0,1,2)p - u(0,1,2)n >= 0
MCLin3(0,1,2):  -22 y(1,0,2) - v(0,1,2)p + v(0,1,2)n + u(0,1,2)p - u(0,1,2)n >= -22
MCLin4(0,1,2):  -22 y(1,0,2) + u(0,1,2)p - u(0,1,2)n <= 0
MCLin5(0,1,2):  37 y(1,0,2) - v(0,1,2)p + v(0,1,2)n + u(0,1,2)p - u(0,1,2)n <= 37
MCLin6(1,0,2):  u(1,0,2)p - u(1,0,2)n >= 0
MCLin7(1,0,2):  36 y(0,1,2) + u(1,0,2)p - u(1,0,2)n >= 0
MCLin8(1,0,2):  -23 y(0,1,2) - v(1,0,2)p + v(1,0,2)n + u(1,0,2)p - u(1,0,2)n >= -23
MCLin9(1,0,2):  -23 y(0,1,2) + u(1,0,2)p - u(1,0,2)n <= 0
MCLin10(1,0,2):  36 y(0,1,2) - v(1,0,2)p + v(1,0,2)n + u(1,0,2)p - u(1,0,2)n <= 36
MCLinV(0,2,0):  - x(0,0) + v(0,2,0)p - v(0,2,0)n + x(2,0) = -2
MCLinV(2,0,0):  x(0,0) + v(2,0,0)p - v(2,0,0)n - x(2,0) = -1
MCLin1(0,2,0):  u(0,2,0)p - u(0,2,0)n >= 0
MCLin2(0,2,0):  30 y(2,0,0) + u(0,2,0)p - u(0,2,0)n >= 0
MCLin3(0,2,0):  -28 y(2,0,0) - v(0,2,0)p + v(0,2,0)n + u(0,2,0)p - u(0,2,0)n >= -28
MCLin4(0,2,0):  -28 y(2,0,0) + u(0,2,0)p - u(0,2,0)n <= 0
MCLin5(0,2,0):  30 y(2,0,0) - v(0,2,0)p + v(0,2,0)n + u(0,2,0)p - u(0,2,0)n <= 30
MCLin6(2,0,0):  u(2,0,0)p - u(2,0,0)n >= 0
MCLin7(2,0,0):  31 y(0,2,0) + u(2,0,0)p - u(2,0,0)n >= 0
MCLin8(2,0,0):  -27 y(0,2,0) - v(2,0,0)p + v(2,0,0)n + u(2,0,0)p - u(2,0,0)n >= -27
MCLin9(2,0,0):  -27 y(0,2,0) + u(2,0,0)p - u(2,0,0)n <= 0
MCLin10(2,0,0):  31 y(0,2,0) - v(2,0,0)p + v(2,0,0)n + u(2,0,0)p - u(2,0,0)n <= 31
MCLinV(0,2,1):  - x(0,1) + v(0,2,1)p - v(0,2,1)n + x(2,1) = -7
MCLinV(2,0,1):  x(0,1) + v(2,0,1)p - v(2,0,1)n - x(2,1) = -7
MCLin1(0,2,1):  u(0,2,1)p - u(0,2,1)n >= 0
MCLin2(0,2,1):  36 y(2,0,1) + u(0,2,1)p - u(0,2,1)n >= 0
MCLin3(0,2,1):  -22 y(2,0,1) - v(0,2,1)p + v(0,2,1)n + u(0,2,1)p - u(0,2,1)n >= -22
MCLin4(0,2,1):  -22 y(2,0,1) + u(0,2,1)p - u(0,2,1)n <= 0
MCLin5(0,2,1):  36 y(2,0,1) - v(0,2,1)p + v(0,2,1)n + u(0,2,1)p - u(0,2,1)n <= 36
MCLin6(2,0,1):  u(2,0,1)p - u(2,0,1)n >= 0
MCLin7(2,0,1):  36 y(0,2,1) + u(2,0,1)p - u(2,0,1)n >= 0
MCLin8(2,0,1):  -22 y(0,2,1) - v(2,0,1)p + v(2,0,1)n + u(2,0,1)p - u(2,0,1)n >= -22
MCLin9(2,0,1):  -22 y(0,2,1) + u(2,0,1)p - u(2,0,1)n <= 0
MCLin10(2,0,1):  36 y(0,2,1) - v(2,0,1)p + v(2,0,1)n + u(2,0,1)p - u(2,0,1)n <= 36
MCLinV(0,2,2):  - x(0,2) + v(0,2,2)p - v(0,2,2)n + x(2,2) = -6
MCLinV(2,0,2):  x(0,2) + v(2,0,2)p - v(2,0,2)n - x(2,2) = -7
MCLin1(0,2,2):  u(0,2,2)p - u(0,2,2)n >= 0
MCLin2(0,2,2):  35 y(2,0,2) + u(0,2,2)p - u(0,2,2)n >= 0
MCLin3(0,2,2):  -23 y(2,0,2) - v(0,2,2)p + v(0,2,2)n + u(0,2,2)p - u(0,2,2)n >= -23
MCLin4(0,2,2):  -23 y(2,0,2) + u(0,2,2)p - u(0,2,2)n <= 0
MCLin5(0,2,2):  35 y(2,0,2) - v(0,2,2)p + v(0,2,2)n + u(0,2,2)p - u(0,2,2)n <= 35
MCLin6(2,0,2):  u(2,0,2)p - u(2,0,2)n >= 0
MCLin7(2,0,2):  36 y(0,2,2) + u(2,0,2)p - u(2,0,2)n >= 0
MCLin8(2,0,2):  -22 y(0,2,2) - v(2,0,2)p + v(2,0,2)n + u(2,0,2)p - u(2,0,2)n >= -22
MCLin9(2,0,2):  -22 y(0,2,2) + u(2,0,2)p - u(2,0,2)n <= 0
MCLin10(2,0,2):  36 y(0,2,2) - v(2,0,2)p + v(2,0,2)n + u(2,0,2)p - u(2,0,2)n <= 36
MCLinV(1,2,0):  - x(1,0) + v(1,2,0)p - v(1,2,0)n + x(2,0) = -2
MCLinV(2,1,0):  x(1,0) + v(2,1,0)p - v(2,1,0)n - x(2,0) = -3
MCLin1(1,2,0):  u(1,2,0)p - u(1,2,0)n >= 0
MCLin2(1,2,0):  40 y(2,1,0) + u(1,2,0)p - u(1,2,0)n >= 0
MCLin3(1,2,0):  -19 y(2,1,0) - v(1,2,0)p + v(1,2,0)n + u(1,2,0)p - u(1,2,0)n >= -19
MCLin4(1,2,0):  -19 y(2,1,0) + u(1,2,0)p - u(1,2,0)n <= 0
MCLin5(1,2,0):  40 y(2,1,0) - v(1,2,0)p + v(1,2,0)n + u(1,2,0)p - u(1,2,0)n <= 40
MCLin6(2,1,0):  u(2,1,0)p - u(2,1,0)n >= 0
MCLin7(2,1,0):  24 y(1,2,0) + u(2,1,0)p - u(2,1,0)n >= 0
MCLin8(2,1,0):  -35 y(1,2,0) - v(2,1,0)p + v(2,1,0)n + u(2,1,0)p - u(2,1,0)n >= -35
MCLin9(2,1,0):  -35 y(1,2,0) + u(2,1,0)p - u(2,1,0)n <= 0
MCLin10(2,1,0):  24 y(1,2,0) - v(2,1,0)p + v(2,1,0)n + u(2,1,0)p - u(2,1,0)n <= 24
MCLinV(1,2,1):  - x(1,1) + v(1,2,1)p - v(1,2,1)n + x(2,1) = -7
MCLinV(2,1,1):  x(1,1) + v(2,1,1)p - v(2,1,1)n - x(2,1) = -4
MCLin1(1,2,1):  u(1,2,1)p - u(1,2,1)n >= 0
MCLin2(1,2,1):  36 y(2,1,1) + u(1,2,1)p - u(1,2,1)n >= 0
MCLin3(1,2,1):  -23 y(2,1,1) - v(1,2,1)p + v(1,2,1)n + u(1,2,1)p - u(1,2,1)n >= -23
MCLin4(1,2,1):  -23 y(2,1,1) + u(1,2,1)p - u(1,2,1)n <= 0
MCLin5(1,2,1):  36 y(2,1,1) - v(1,2,1)p + v(1,2,1)n + u(1,2,1)p - u(1,2,1)n <= 36
MCLin6(2,1,1):  u(2,1,1)p - u(2,1,1)n >= 0
MCLin7(2,1,1):  34 y(1,2,1) + u(2,1,1)p - u(2,1,1)n >= 0
MCLin8(2,1,1):  -25 y(1,2,1) - v(2,1,1)p + v(2,1,1)n + u(2,1,1)p - u(2,1,1)n >= -25
MCLin9(2,1,1):  -25 y(1,2,1) + u(2,1,1)p - u(2,1,1)n <= 0
MCLin10(2,1,1):  34 y(1,2,1) - v(2,1,1)p + v(2,1,1)n + u(2,1,1)p - u(2,1,1)n <= 34
MCLinV(1,2,2):  - x(1,2) + v(1,2,2)p - v(1,2,2)n + x(2,2) = -6
MCLinV(2,1,2):  x(1,2) + v(2,1,2)p - v(2,1,2)n - x(2,2) = -7
MCLin1(1,2,2):  u(1,2,2)p - u(1,2,2)n >= 0
MCLin2(1,2,2):  35 y(2,1,2) + u(1,2,2)p - u(1,2,2)n >= 0
MCLin3(1,2,2):  -24 y(2,1,2) - v(1,2,2)p + v(1,2,2)n + u(1,2,2)p - u(1,2,2)n >= -24
MCLin4(1,2,2):  -24 y(2,1,2) + u(1,2,2)p - u(1,2,2)n <= 0
MCLin5(1,2,2):  35 y(2,1,2) - v(1,2,2)p + v(1,2,2)n + u(1,2,2)p - u(1,2,2)n <= 35
MCLin6(2,1,2):  u(2,1,2)p - u(2,1,2)n >= 0
MCLin7(2,1,2):  37 y(1,2,2) + u(2,1,2)p - u(2,1,2)n >= 0
MCLin8(2,1,2):  -22 y(1,2,2) - v(2,1,2)p + v(2,1,2)n + u(2,1,2)p - u(2,1,2)n >= -22
MCLin9(2,1,2):  -22 y(1,2,2) + u(2,1,2)p - u(2,1,2)n <= 0
MCLin10(2,1,2):  37 y(1,2,2) - v(2,1,2)p + v(2,1,2)n + u(2,1,2)p - u(2,1,2)n <= 37
makespan(0):  C - x(0,0) >= 1
makespan(1):  C - x(1,2) >= 7
makespan(2):  C - x(2,0) >= 2
cut_clique_1(02,0):  0.05039 x(0,0) + 0.02212 x(2,0) >= 1
cut_clique_1(012,0):  0.03583 x(0,0) + 0.02053 x(1,0) + 0.03151 x(2,0) >= 1
cut_clique_1(02,1):  x(0,1) + 0.98632 x(2,1) >= 1
cut_clique_1(012,1):  x(0,1) + 0.47175 x(1,1) + 0.80139 x(2,1) >= 1
cut_clique_1(01,1):  x(0,1) + 0.74609 x(1,1) >= 1
cut_clique_1(12,1):  0.95536 x(1,1) + x(2,1) >= 1
cut_clique_1(02,2):  0.01984 x(0,2) + 0.11745 x(2,2) >= 1
cut_clique_1(12,2):  0.08926 x(1,2) + 0.05263 x(2,2) >= 1
cut_clique_1(012,2):  0.03095 x(0,2) + 0.05874 x(1,2) + 0.05244 x(2,2) >= 1
cut_clique_1(01,2):  0.03835 x(0,2) + 0.10224 x(1,2) >= 1
cut_clique_2(012,1):  0.75756 x(0,1) + 0.35045 x(1,1) + 0.64130 x(2,1) >= 1
cut_clique_2(02,1):  x(0,1) + 0.56942 x(2,1) >= 1
cut_clique_2(01,1):  0.74602 x(0,1) + 0.88914 x(1,1) >= 1
cut_clique_2(12,1):  0.55926 x(1,1) + 0.91201 x(2,1) >= 1
cut_clique_2(02,2):  0.01322 x(0,2) + 0.11867 x(2,2) >= 1
cut_clique_2(12,2):  0.06174 x(1,2) + 0.06912 x(2,2) >= 1
cut_clique_3(012,1):  0.84989 x(0,1) + 0.29907 x(1,1) + 0.26382 x(2,1) >= 1
cut_clique_3(01,1):  0.65698 x(0,1) + 0.69887 x(1,1) >= 1
cut_clique_3(02,1):  0.98059 x(0,1) + 0.58206 x(2,1) >= 1
cut_clique_3(12,1):  0.69351 x(1,1) + 0.70527 x(2,1) >= 1
cut_clique_3(02,2):  0.07073 x(0,2) + 0.05014 x(2,2) >= 1
cut_clique_3(012,2):  0.05937 x(0,2) + 0.01436 x(1,2) + 0.05055 x(2,2) >= 1
cut_clique_4(012,1):  0.05598 x(0,1) + 0.35764 x(1,1) + x(2,1) >= 1
cut_clique_4(12,1):  0.42633 x(1,1) + x(2,1) >= 1
cut_clique_4(02,1):  0.58221 x(0,1) + x(2,1) >= 1
cut_clique_4(01,1):  0.46684 x(0,1) + 0.20948 x(1,1) >= 1
cut_clique_4(02,2):  0.05761 x(0,2) + 0.06058 x(2,2) >= 1
cut_clique_4(12,2):  0.05252 x(1,2) + 0.06436 x(2,2) >= 1
cut_clique_4(01,2):  0.06131 x(0,2) + 0.05394 x(1,2) >= 1
cut_clique_5(12,1):  0.40828 x(1,1) + 0.79434 x(2,1) >= 1
cut_clique_5(02,1):  0.57737 x(0,1) + x(2,1) >= 1
cut_clique_5(012,1):  0.58591 x(0,1) + 0.00948 x(1,1) + 0.75319 x(2,1) >= 1
cut_clique_5(01,1):  0.42857 x(0,1) + 0.16679 x(1,1) >= 1
cut_clique_5(12,2):  0.05717 x(1,2) + 0.05112 x(2,2) >= 1
cut_clique_5(012,2):  0.01388 x(0,2) + 0.08681 x(1,2) + 0.00964 x(2,2) >= 1
cut_clique_6(12,1):  0.39065 x(1,1) + x(2,1) >= 1
cut_clique_6(012,1):  0.06333 x(0,1) + 0.35065 x(1,1) + 0.88766 x(2,1) >= 1
cut_clique_6(02,1):  0.57462 x(0,1) + 0.86569 x(2,1) >= 1
cut_clique_6(02,2):  0.05831 x(0,2) + 0.04631 x(2,2) >= 1
cut_clique_6(012,2):  0.03560 x(0,2) + 0.01335 x(1,2) + 0.06147 x(2,2) >= 1
cut_clique_7(12,1):  0.37854 x(1,1) + x(2,1) >= 1
cut_clique_7(012,1):  0.36874 x(0,1) + 0.10600 x(1,1) + 0.92566 x(2,1) >= 1
cut_clique_7(02,1):  0.23805 x(0,1) + 0.97070 x(2,1) >= 1
cut_clique_8(02,1):  0.29364 x(0,1) + 0.89077 x(2,1) >= 1
cut_clique_8(012,1):  0.46307 x(0,1) + 0.06872 x(1,1) + 0.24927 x(2,1) >= 1
cut_clique_8(12,1):  0.16469 x(1,1) + 0.47978 x(2,1) >= 1
cut_clique_8(01,1):  0.39064 x(0,1) + 0.17505 x(1,1) >= 1
cut_clique_8(02,2):  0.06108 x(0,2) + 0.04322 x(2,2) >= 1
cut_clique_9(02,1):  0.60243 x(0,1) + 0.33897 x(2,1) >= 1
cut_clique_9(012,1):  0.34650 x(0,1) + 0.09573 x(1,1) + 0.23710 x(2,1) >= 1
cut_clique_9(12,1):  0.15913 x(1,1) + 0.50211 x(2,1) >= 1
cut_clique_9(01,1):  0.40472 x(0,1) + 0.14321 x(1,1) >= 1
cut_clique_9(02,2):  0.05356 x(0,2) + 0.04983 x(2,2) >= 1
cut_clique_10(02,1):  0.45406 x(0,1) + 0.49016 x(2,1) >= 1
cut_clique_10(012,1):  0.32442 x(0,1) + 0.06715 x(1,1) + 0.23739 x(2,1) >= 1
cut_clique_10(01,1):  0.33077 x(0,1) + 0.15403 x(1,1) >= 1
cut_clique_10(12,1):  0.15013 x(1,1) + 0.52804 x(2,1) >= 1
cut_clique_10(02,2):  0.05668 x(0,2) + 0.04600 x(2,2) >= 1
cut_clique_11(02,1):  0.35953 x(0,1) + 0.43666 x(2,1) >= 1
cut_clique_11(12,1):  0.14937 x(1,1) + 0.50283 x(2,1) >= 1
cut_clique_11(012,1):  0.24860 x(0,1) + 0.14939 x(1,1) + 0.02120 x(2,1) >= 1
cut_clique_11(02,2):  0.05273 x(0,2) + 0.04953 x(2,2) >= 1
cut_clique_12(02,1):  0.38260 x(0,1) + 0.36591 x(2,1) >= 1
cut_clique_12(012,1):  0.46181 x(0,1) + 0.02400 x(1,1) + 0.10745 x(2,1) >= 1
cut_clique_12(012,2):  0.04163 x(0,2) + 0.01055 x(1,2) + 0.04328 x(2,2) >= 1
cut_clique_12(02,2):  0.05768 x(0,2) + 0.04367 x(2,2) >= 1
cut_clique_13(02,1):  0.19294 x(0,1) + 0.88059 x(2,1) >= 1
cut_clique_13(012,1):  0.19572 x(0,1) + 0.05674 x(1,1) + 0.41729 x(2,1) >= 1
cut_clique_13(12,1):  0.15281 x(1,1) + 0.35085 x(2,1) >= 1
cut_clique_13(012,2):  0.02526 x(0,2) + 0.01575 x(1,2) + 0.05377 x(2,2) >= 1
cut_clique_14(02,1):  0.40477 x(0,1) + 0.25550 x(2,1) >= 1
cut_clique_14(012,1):  0.18448 x(0,1) + 0.05044 x(1,1) + 0.15267 x(2,1) >= 1
cut_clique_14(12,1):  0.15289 x(1,1) + 0.31587 x(2,1) >= 1
cut_clique_15(02,1):  0.22514 x(0,1) + 0.22331 x(2,1) >= 1
cut_clique_15(12,1):  0.15457 x(1,1) + 0.25374 x(2,1) >= 1
cut_clique_15(012,1):  0.05573 x(0,1) + 0.06985 x(1,1) + 0.32194 x(2,1) >= 1
cut_clique_15(012,2):  0.04188 x(0,2) + 0.01290 x(1,2) + 0.03662 x(2,2) >= 1
cut_clique_16(02,1):  0.22975 x(0,1) + 0.21049 x(2,1) >= 1
cut_clique_17(02,1):  0.14718 x(0,1) + 0.34172 x(2,1) >= 1
cut_clique_17(012,1):  0.14718 x(0,1) + 0.00409 x(1,1) + 0.34172 x(2,1) >= 1
cut_clique_18(02,1):  0.22975 x(0,1) + 0.19692 x(2,1) >= 1
cut_clique_18(012,1):  0.19410 x(0,1) + 0.04620 x(1,1) + 0.10951 x(2,1) >= 1
cut_clique_19(02,1):  0.20218 x(0,1) + 0.22043 x(2,1) >= 1
cut_clique_19(012,1):  0.14622 x(0,1) + 0.07275 x(1,1) + 0.12855 x(2,1) >= 1
cut_clique_20(02,1):  0.19210 x(0,1) + 0.23450 x(2,1) >= 1
cut_clique_20(012,1):  0.16329 x(0,1) + 0.01021 x(1,1) + 0.25872 x(2,1) >= 1
cut_clique_21(02,1):  0.17008 x(0,1) + 0.27108 x(2,1) >= 1
cut_clique_21(012,1):  0.15279 x(0,1) + 0.02596 x(1,1) + 0.14442 x(2,1) >= 1
cut_clique_22(02,1):  0.15542 x(0,1) + 0.20037 x(2,1) >= 1
cut_clique_22(012,1):  0.07531 x(0,1) + 0.07926 x(1,1) + 0.14803 x(2,1) >= 1
cut_clique_23(02,1):  0.15769 x(0,1) + 0.17126 x(2,1) >= 1
cut_clique_24(02,1):  0.17277 x(0,1) + 0.14613 x(2,1) >= 1
cut_clique_25(012,1):  0.06985 x(0,1) + 0.10307 x(1,1) + 0.10840 x(2,1) >= 1
cut_clique_25(02,1):  0.15004 x(0,1) + 0.18247 x(2,1) >= 1
cut_clique_26(02,1):  0.15471 x(0,1) + 0.16538 x(2,1) >= 1
cut_clique_26(012,1):  0.08231 x(0,1) + 0.10504 x(1,1) + 0.07163 x(2,1) >= 1
cut_clique_26(012,2):  0.01712 x(0,2) + 0.04255 x(1,2) + 0.02832 x(2,2) >= 1
cut_clique_27(012,1):  0.10320 x(0,1) + 0.03902 x(1,1) + 0.16435 x(2,1) >= 1
cut_clique_28(012,1):  0.11342 x(0,1) + 0.04551 x(1,1) + 0.07693 x(2,1) >= 1
cut_clique_28(02,1):  0.16215 x(0,1) + 0.14647 x(2,1) >= 1
Bounds
 0 <= C <= 44
 14 <= x(0,0) <= 43
 0 <= y(0,1,0) <= 1
 0 <= y(1,0,0) <= 1
 0 <= v(0,1,0)p <= 36
 0 <= v(0,1,0)n <= 23
 0 <= v(1,0,0)p <= 19
 0 <= v(1,0,0)n <= 40
 0 <= u(0,1,0)p <= 440
 0 <= u(0,1,0)n <= 440
 0 <= u(1,0,0)p <= 440
 0 <= u(1,0,0)n <= 440
 0 <= y(0,2,0) <= 1
 0 <= y(2,0,0) <= 1
 0 <= v(0,2,0)p <= 28
 0 <= v(0,2,0)n <= 30
 0 <= v(2,0,0)p <= 27
 0 <= v(2,0,0)n <= 31
 0 <= u(0,2,0)p <= 440
 0 <= u(0,2,0)n <= 440
 0 <= u(2,0,0)p <= 440
 0 <= u(2,0,0)n <= 440
 4 <= x(1,0) <= 34
 0 <= y(1,2,0) <= 1
 0 <= y(2,1,0) <= 1
 0 <= v(1,2,0)p <= 19
 0 <= v(1,2,0)n <= 40
 0 <= v(2,1,0)p <= 35
 0 <= v(2,1,0)n <= 24
 0 <= u(1,2,0)p <= 440
 0 <= u(1,2,0)n <= 440
 0 <= u(2,1,0)p <= 440
 0 <= u(2,1,0)n <= 440
 13 <= x(2,0) <= 42
 0 <= x(0,1) <= 29
 0 <= y(0,1,1) <= 1
 0 <= y(1,0,1) <= 1
 0 <= v(0,1,1)p <= 25
 0 <= v(0,1,1)n <= 34
 0 <= v(1,0,1)p <= 23
 0 <= v(1,0,1)n <= 36
 0 <= u(0,1,1)p <= 440
 0 <= u(0,1,1)n <= 440
 0 <= u(1,0,1)p <= 440
 0 <= u(1,0,1)n <= 440
 0 <= y(0,2,1) <= 1
 0 <= y(2,0,1) <= 1
 0 <= v(0,2,1)p <= 22
 0 <= v(0,2,1)n <= 36
 0 <= v(2,0,1)p <= 22
 0 <= v(2,0,1)n <= 36
 0 <= u(0,2,1)p <= 440
 0 <= u(0,2,1)n <= 440
 0 <= u(2,0,1)p <= 440
 0 <= u(2,0,1)n <= 440
 0 <= x(1,1) <= 30
 0 <= y(1,2,1) <= 1
 0 <= y(2,1,1) <= 1
 0 <= v(1,2,1)p <= 23
 0 <= v(1,2,1)n <= 36
 0 <= v(2,1,1)p <= 25
 0 <= v(2,1,1)n <= 34
 0 <= u(1,2,1)p <= 440
 0 <= u(1,2,1)n <= 440
 0 <= u(2,1,1)p <= 440
 0 <= u(2,1,1)n <= 440
 0 <= x(2,1) <= 29
 7 <= x(0,2) <= 36
 0 <= y(0,1,2) <= 1
 0 <= y(1,0,2) <= 1
 0 <= v(0,1,2)p <= 22
 0 <= v(0,1,2)n <= 37
 0 <= v(1,0,2)p <= 23
 0 <= v(1,0,2)n <= 36
 0 <= u(0,1,2)p <= 440
 0 <= u(0,1,2)n <= 440
 0 <= u(1,0,2)p <= 440
 0 <= u(1,0,2)n <= 440
 0 <= y(0,2,2) <= 1
 0 <= y(2,0,2) <= 1
 0 <= v(0,2,2)p <= 23
 0 <= v(0,2,2)n <= 35
 0 <= v(2,0,2)p <= 22
 0 <= v(2,0,2)n <= 36
 0 <= u(0,2,2)p <= 440
 0 <= u(0,2,2)n <= 440
 0 <= u(2,0,2)p <= 440
 0 <= u(2,0,2)n <= 440
 7 <= x(1,2) <= 37
 0 <= y(1,2,2) <= 1
 0 <= y(2,1,2) <= 1
 0 <= v(1,2,2)p <= 24
 0 <= v(1,2,2)n <= 35
 0 <= v(2,1,2)p <= 22
 0 <= v(2,1,2)n <= 37
 0 <= u(1,2,2)p <= 440
 0 <= u(1,2,2)n <= 440
 0 <= u(2,1,2)p <= 440
 0 <= u(2,1,2)n <= 440
 7 <= x(2,2) <= 36
End
